\ Model warehouse_inventory_variant
\ LP format - for model browsing. Use MPS format to capture full model detail.
Minimize
  2973.71 INV1 + 1567.94 HAND1 + 37.58 SLACK1 + 431.65 RESERVE1
   + 2973.71 INV2 + 1567.94 HAND2 + 37.58 SLACK2 + 431.65 RESERVE2
   + 2973.71 INV3 + 1567.94 HAND3 + 37.58 SLACK3 + 431.65 RESERVE3
   + 2973.71 INV4 + 1567.94 HAND4 + 37.58 SLACK4 + 431.65 RESERVE4
   + 2973.71 INV5 + 1567.94 HAND5 + 37.58 SLACK5 + 431.65 RESERVE5
   + 2973.71 INV6 + 1567.94 HAND6 + 37.58 SLACK6 + 431.65 RESERVE6
Subject To
 INIT_INV: INV1 = 100
 DEMAND1: 150 INV1 - 100 HAND1 + SLACK1 - 50 RESERVE1 >= 1
 SLACK_BOUND1: - 20 INV1 + SLACK1 <= 0
 DEMAND2: 150 INV2 - 100 HAND2 + SLACK2 - 50 RESERVE2 >= 1
 SLACK_BOUND2: - 20 INV2 + SLACK2 <= 0
 DEMAND3: 150 INV3 - 100 HAND3 + SLACK3 - 50 RESERVE3 >= 1
 SLACK_BOUND3: - 20 INV3 + SLACK3 <= 0
 DEMAND4: 150 INV4 - 100 HAND4 + SLACK4 - 50 RESERVE4 >= 1
 SLACK_BOUND4: - 20 INV4 + SLACK4 <= 0
 DEMAND5: 150 INV5 - 100 HAND5 + SLACK5 - 50 RESERVE5 >= 1
 SLACK_BOUND5: - 20 INV5 + SLACK5 <= 0
 DEMAND6: 150 INV6 - 100 HAND6 + SLACK6 - 50 RESERVE6 >= 1
 SLACK_BOUND6: - 20 INV6 + SLACK6 <= 0
 TRANS2: INV1 + HAND1 - INV2 = 0
 TRANS3: INV2 + HAND2 - INV3 = 0
 TRANS4: INV3 + HAND3 - INV4 = 0
 TRANS5: INV4 + HAND4 - INV5 = 0
 TRANS6: INV5 + HAND5 - INV6 = 0
 RESERVE_BOUND1: - INV1 + RESERVE1 <= 0
 RESERVE_BOUND2: - INV2 + RESERVE2 <= 0
 RESERVE_BOUND3: - INV3 + RESERVE3 <= 0
 RESERVE_BOUND4: - INV4 + RESERVE4 <= 0
 RESERVE_BOUND5: - INV5 + RESERVE5 <= 0
 RESERVE_BOUND6: - INV6 + RESERVE6 <= 0
Bounds
 HAND1 <= 100
 RESERVE1 <= 100
 INV2 <= 100
 HAND2 <= 100
 RESERVE2 <= 100
 INV3 <= 100
 HAND3 <= 100
 RESERVE3 <= 100
 INV4 <= 100
 HAND4 <= 100
 RESERVE4 <= 100
 INV5 <= 100
 HAND5 <= 100
 RESERVE5 <= 100
 INV6 <= 100
 HAND6 <= 100
 RESERVE6 <= 100
Generals
 INV1 HAND1 RESERVE1 INV2 HAND2 RESERVE2 INV3 HAND3 RESERVE3 INV4 HAND4
 RESERVE4 INV5 HAND5 RESERVE5 INV6 HAND6 RESERVE6
End
